Quantum-Cryptanalysis/instances/samples/hf_n32/hf_n32_cnf08.sol
c DPLL-like Solver for max-min SAT
f file hf_n32_cnf08.cnf
p cnf 32 220
s max  220 12 9 11 -10 -19 4 -25 -3 1 -2 -29 15 -14 16 -13 -24 -28 -7 18 8 -6 -21 -20 -5 -30 -31 -27 -23 -32 -26 -17 -22
s min  192 -11 -12 19 -10 9 32 -13 16 15 -14 20 -23 21 25 31 24 29 8 18 17 30 28 22 -27 -26 1 -2 -3 4 -5 6 -7